;symbolic execution tree
(push)
(assert (le x14 java.lang.StringBuffer))
(check-sat)
(push)
(assert (le x9 java.lang.StringBuffer))
(check-sat)
(push)
(assert (le x2 java.lang.StringBuffer))
(check-sat)
(push)
(assert (le x5 org.jaxen.Function))
(check-sat)
(pop)
(push)
(assert (not (le x5 org.jaxen.Function)))
(check-sat)
(pop)
(pop)
(push)
(assert (not (le x2 java.lang.StringBuffer)))
(check-sat)
(pop)
(pop)
(push)
(assert (not (le x9 java.lang.StringBuffer)))
(check-sat)
(pop)
(pop)
(push)
(assert (not (le x14 java.lang.StringBuffer)))
(check-sat)
(push)
(assert (le x15 com.lowagie.text.pdf.PdfObject))
(check-sat)
(pop)
(push)
(assert (not (le x15 com.lowagie.text.pdf.PdfObject)))
(check-sat)
(push)
(assert (le x0 com.lowagie.text.pdf.ByteBuffer))
(check-sat)
(pop)
(push)
(assert (not (le x0 com.lowagie.text.pdf.ByteBuffer)))
(check-sat)
(pop)
(pop)
(push)
(assert (le x8 com.lowagie.text.pdf.PdfObject))
(check-sat)
(pop)
(push)
(assert (not (le x8 com.lowagie.text.pdf.PdfObject)))
(check-sat)
(pop)
(push)
(assert (le x1 java.lang.Integer))
(check-sat)
(push)
(assert (le x14 java.lang.StringBuffer))
(check-sat)
(pop)
(push)
(assert (not (le x14 java.lang.StringBuffer)))
(check-sat)
(push)
(assert (le x15 java.lang.Integer))
(check-sat)
(pop)
(push)
(assert (not (le x15 java.lang.Integer)))
(check-sat)
(pop)
(push)
(assert (le x6 java.lang.String))
(check-sat)
(pop)
(push)
(assert (not (le x6 java.lang.String)))
(check-sat)
(pop)
(pop)
(pop)
(push)
(assert (not (le x1 java.lang.Integer)))
(check-sat)
(push)
(assert (le x6 java.lang.StringBuffer))
(check-sat)
(push)
(assert (le x10 java.lang.StringBuffer))
(check-sat)
(pop)
(push)
(assert (not (le x10 java.lang.StringBuffer)))
(check-sat)
(push)
(assert (le x11 java.lang.String))
(check-sat)
(pop)
(push)
(assert (not (le x11 java.lang.String)))
(check-sat)
(pop)
(pop)
(pop)
(push)
(assert (not (le x6 java.lang.StringBuffer)))
(check-sat)
(push)
(assert (le x1 java.lang.Integer))
(check-sat)
(pop)
(push)
(assert (not (le x1 java.lang.Integer)))
(check-sat)
(pop)
(push)
(assert (le x15 java.lang.StringBuffer))
(check-sat)
(pop)
(push)
(assert (not (le x15 java.lang.StringBuffer)))
(check-sat)
(push)
(assert (le x13 java.lang.StringBuffer))
(check-sat)
(pop)
(push)
(assert (not (le x13 java.lang.StringBuffer)))
(check-sat)
(pop)
(pop)
(push)
(assert (le x9 java.lang.StringBuffer))
(check-sat)
(pop)
(push)
(assert (not (le x9 java.lang.StringBuffer)))
(check-sat)
(pop)
(pop)
(pop)
(push)
(assert (le x2 java.lang.StringBuffer))
(check-sat)
(pop)
(push)
(assert (not (le x2 java.lang.StringBuffer)))
(check-sat)
(push)
(assert (le x12 java.lang.String))
(check-sat)
(pop)
(push)
(assert (not (le x12 java.lang.String)))
(check-sat)
(push)
(assert (le x12 java.lang.String))
(check-sat)
(pop)
(push)
(assert (not (le x12 java.lang.String)))
(check-sat)
(pop)
(push)
(assert (le x15 java.lang.StringBuffer))
(check-sat)
(pop)
(push)
(assert (not (le x15 java.lang.StringBuffer)))
(check-sat)
(push)
(assert (le x2 java.lang.StringBuffer))
(check-sat)
(pop)
(push)
(assert (not (le x2 java.lang.StringBuffer)))
(check-sat)
(pop)
(push)
(assert (le x11 com.lowagie.text.pdf.PdfObject))
(check-sat)
(pop)
(push)
(assert (not (le x11 com.lowagie.text.pdf.PdfObject)))
(check-sat)
(pop)
(pop)
(pop)
(push)
(assert (le x8 java.lang.String))
(check-sat)
(pop)
(push)
(assert (not (le x8 java.lang.String)))
(check-sat)
(pop)
(pop)
(push)
(assert (le x8 java.lang.StringBuffer))
(check-sat)
(push)
(assert (le x14 java.lang.StringBuffer))
(check-sat)
(pop)
(push)
(assert (not (le x14 java.lang.StringBuffer)))
(check-sat)
(push)
(assert (le x2 java.lang.StringBuffer))
(check-sat)
(pop)
(push)
(assert (not (le x2 java.lang.StringBuffer)))
(check-sat)
(pop)
(pop)
(pop)
(push)
(assert (not (le x8 java.lang.StringBuffer)))
(check-sat)
(pop)
(push)
(assert (le x1 java.lang.reflect.Field))
(check-sat)
(push)
(assert (le x12 java.lang.String))
(check-sat)
(pop)
(push)
(assert (not (le x12 java.lang.String)))
(check-sat)
(push)
(assert (le x4 com.lowagie.text.pdf.PdfObject))
(check-sat)
(pop)
(push)
(assert (not (le x4 com.lowagie.text.pdf.PdfObject)))
(check-sat)
(pop)
(push)
(assert (le x11 java.lang.String))
(check-sat)
(pop)
(push)
(assert (not (le x11 java.lang.String)))
(check-sat)
(pop)
(push)
(assert (le x0 com.lowagie.text.pdf.ByteBuffer))
(check-sat)
(pop)
(push)
(assert (not (le x0 com.lowagie.text.pdf.ByteBuffer)))
(check-sat)
(pop)
(push)
(assert (le x7 com.lowagie.text.pdf.PdfName))
(check-sat)
(pop)
(push)
(assert (not (le x7 com.lowagie.text.pdf.PdfName)))
(check-sat)
(pop)
(pop)
(push)
(assert (le x4 java.lang.String))
(check-sat)
(pop)
(push)
(assert (not (le x4 java.lang.String)))
(check-sat)
(pop)
(pop)
(push)
(assert (not (le x1 java.lang.reflect.Field)))
(check-sat)
(push)
(assert (le x10 com.lowagie.text.pdf.PdfObject))
(check-sat)
(pop)
(push)
(assert (not (le x10 com.lowagie.text.pdf.PdfObject)))
(check-sat)
(pop)
(push)
(assert (le x7 java.lang.StringBuffer))
(check-sat)
(push)
(assert (le x1 java.lang.reflect.Field))
(check-sat)
(pop)
(push)
(assert (not (le x1 java.lang.reflect.Field)))
(check-sat)
(pop)
(pop)
(push)
(assert (not (le x7 java.lang.StringBuffer)))
(check-sat)
(push)
(assert (le x0 com.lowagie.text.pdf.PdfName))
(check-sat)
(push)
(assert (le x10 java.lang.Integer))
(check-sat)
(pop)
(push)
(assert (not (le x10 java.lang.Integer)))
(check-sat)
(pop)
(pop)
(push)
(assert (not (le x0 com.lowagie.text.pdf.PdfName)))
(check-sat)
(pop)
(pop)
(push)
(assert (le x12 java.lang.Integer))
(check-sat)
(push)
(assert (le x14 java.lang.StringBuffer))
(check-sat)
(pop)
(push)
(assert (not (le x14 java.lang.StringBuffer)))
(check-sat)
(pop)
(pop)
(push)
(assert (not (le x12 java.lang.Integer)))
(check-sat)
(pop)
(push)
(assert (le x14 java.lang.StringBuffer))
(check-sat)
(pop)
(push)
(assert (not (le x14 java.lang.StringBuffer)))
(check-sat)
(push)
(assert (le x6 com.lowagie.text.pdf.PdfObject))
(check-sat)
(pop)
(push)
(assert (not (le x6 com.lowagie.text.pdf.PdfObject)))
(check-sat)
(pop)
(pop)
(pop)
(push)
(assert (le x5 java.lang.StringBuffer))
(check-sat)
(pop)
(push)
(assert (not (le x5 java.lang.StringBuffer)))
(check-sat)
(push)
(assert (le x10 java.lang.StringBuffer))
(check-sat)
(pop)
(push)
(assert (not (le x10 java.lang.StringBuffer)))
(check-sat)
(pop)
(push)
(assert (le x6 java.lang.String))
(check-sat)
(pop)
(push)
(assert (not (le x6 java.lang.String)))
(check-sat)
(pop)
(push)
(assert (le x14 java.lang.StringBuffer))
(check-sat)
(pop)
(push)
(assert (not (le x14 java.lang.StringBuffer)))
(check-sat)
(push)
(assert (le x10 com.lowagie.text.pdf.PdfName))
(check-sat)
(pop)
(push)
(assert (not (le x10 com.lowagie.text.pdf.PdfName)))
(check-sat)
(pop)
(push)
(assert (le x12 java.lang.StringBuffer))
(check-sat)
(pop)
(push)
(assert (not (le x12 java.lang.StringBuffer)))
(check-sat)
(push)
(assert (le x6 java.lang.StringBuffer))
(check-sat)
(pop)
(push)
(assert (not (le x6 java.lang.StringBuffer)))
(check-sat)
(pop)
(pop)
(push)
(assert (le x13 java.lang.StringBuffer))
(check-sat)
(push)
(assert (le x12 java.lang.StringBuffer))
(check-sat)
(pop)
(push)
(assert (not (le x12 java.lang.StringBuffer)))
(check-sat)
(pop)
(push)
(assert (le x0 java.util.HashMap))
(check-sat)
(pop)
(push)
(assert (not (le x0 java.util.HashMap)))
(check-sat)
(pop)
(pop)
(push)
(assert (not (le x13 java.lang.StringBuffer)))
(check-sat)
(push)
(assert (le x7 java.lang.StringBuffer))
(check-sat)
(pop)
(push)
(assert (not (le x7 java.lang.StringBuffer)))
(check-sat)
(pop)
(pop)
(pop)
(push)
(assert (le x10 java.lang.Integer))
(check-sat)
(pop)
(push)
(assert (not (le x10 java.lang.Integer)))
(check-sat)
(push)
(assert (le x9 java.lang.StringBuffer))
(check-sat)
(pop)
(push)
(assert (not (le x9 java.lang.StringBuffer)))
(check-sat)
(pop)
(pop)
(pop)
(push)
(assert (le x14 java.lang.StringBuffer))
(check-sat)
(pop)
(push)
(assert (not (le x14 java.lang.StringBuffer)))
(check-sat)
(pop)
(push)
(assert (le x9 java.lang.StringBuffer))
(check-sat)
(pop)
(push)
(assert (not (le x9 java.lang.StringBuffer)))
(check-sat)
(push)
(assert (le x8 com.lowagie.text.pdf.PdfObject))
(check-sat)
(push)
(assert (le x15 com.lowagie.text.pdf.ByteBuffer))
(check-sat)
(pop)
(push)
(assert (not (le x15 com.lowagie.text.pdf.ByteBuffer)))
(check-sat)
(pop)
(push)
(assert (not (le x3 java.util.ArrayList)))
(check-sat)
(pop)
(push)
(assert (le x3 java.util.ArrayList))
(check-sat)
(pop)
(pop)
(push)
(assert (not (le x8 com.lowagie.text.pdf.PdfObject)))
(check-sat)
(pop)
(push)
(assert (le x6 java.lang.String))
(check-sat)
(pop)
(push)
(assert (not (le x6 java.lang.String)))
(check-sat)
(pop)
(push)
(assert (le x9 java.lang.StringBuffer))
(check-sat)
(pop)
(push)
(assert (not (le x9 java.lang.StringBuffer)))
(check-sat)
(pop)
(push)
(assert (le x0 java.lang.StringBuffer))
(check-sat)
(push)
(assert (le x10 java.util.List))
(check-sat)
(push)
(assert (le x2 java.lang.StringBuffer))
(check-sat)
(pop)
(push)
(assert (not (le x2 java.lang.StringBuffer)))
(check-sat)
(pop)
(pop)
(push)
(assert (not (le x10 java.util.List)))
(check-sat)
(pop)
(pop)
(push)
(assert (not (le x0 java.lang.StringBuffer)))
(check-sat)
(push)
(assert (le x5 java.lang.StringBuffer))
(check-sat)
(push)
(assert (le x7 java.lang.String))
(check-sat)
(pop)
(push)
(assert (not (le x7 java.lang.String)))
(check-sat)
(pop)
(pop)
(push)
(assert (not (le x5 java.lang.StringBuffer)))
(check-sat)
(pop)
(push)
(assert (le x11 java.lang.String))
(check-sat)
(pop)
(push)
(assert (not (le x11 java.lang.String)))
(check-sat)
(pop)
(pop)
(pop)
(push)
(assert (le x15 java.lang.String))
(check-sat)
(push)
(assert (le x6 java.util.HashMap))
(check-sat)
(pop)
(push)
(assert (not (le x6 java.util.HashMap)))
(check-sat)
(pop)
(push)
(assert (le x10 java.lang.Integer))
(check-sat)
(pop)
(push)
(assert (not (le x10 java.lang.Integer)))
(check-sat)
(pop)
(pop)
(push)
(assert (not (le x15 java.lang.String)))
(check-sat)
(push)
(assert (le x11 java.lang.Integer))
(check-sat)
(pop)
(push)
(assert (not (le x11 java.lang.Integer)))
(check-sat)
(push)
(assert (le x12 java.lang.StringBuffer))
(check-sat)
(pop)
(push)
(assert (not (le x12 java.lang.StringBuffer)))
(check-sat)
(pop)
(push)
(assert (le x14 java.lang.StringBuffer))
(check-sat)
(pop)
(push)
(assert (not (le x14 java.lang.StringBuffer)))
(check-sat)
(pop)
(pop)
(pop)
(push)
(assert (le x0 java.lang.String))
(check-sat)
(push)
(assert (le x10 java.lang.StringBuffer))
(check-sat)
(push)
(assert (le x11 java.lang.String))
(check-sat)
(pop)
(push)
(assert (not (le x11 java.lang.String)))
(check-sat)
(pop)
(pop)
(push)
(assert (not (le x10 java.lang.StringBuffer)))
(check-sat)
(push)
(assert (le x4 java.lang.Integer))
(check-sat)
(pop)
(push)
(assert (not (le x4 java.lang.Integer)))
(check-sat)
(pop)
(pop)
(push)
(assert (le x1 com.lowagie.text.pdf.ByteBuffer))
(check-sat)
(push)
(assert (le x14 java.lang.StringBuffer))
(check-sat)
(pop)
(push)
(assert (not (le x14 java.lang.StringBuffer)))
(check-sat)
(pop)
(push)
(assert (le x8 com.lowagie.text.pdf.PdfObject))
(check-sat)
(pop)
(push)
(assert (not (le x8 com.lowagie.text.pdf.PdfObject)))
(check-sat)
(pop)
(push)
(assert (le x8 java.lang.String))
(check-sat)
(pop)
(push)
(assert (not (le x8 java.lang.String)))
(check-sat)
(pop)
(pop)
(push)
(assert (not (le x1 com.lowagie.text.pdf.ByteBuffer)))
(check-sat)
(push)
(assert (le x14 java.lang.StringBuffer))
(check-sat)
(pop)
(push)
(assert (not (le x14 java.lang.StringBuffer)))
(check-sat)
(pop)
(pop)
(push)
(assert (le x0 java.lang.String))
(check-sat)
(push)
(assert (le x13 java.lang.StringBuffer))
(check-sat)
(pop)
(push)
(assert (not (le x13 java.lang.StringBuffer)))
(check-sat)
(pop)
(push)
(assert (le x12 com.lowagie.text.pdf.PdfObject))
(check-sat)
(pop)
(push)
(assert (not (le x12 com.lowagie.text.pdf.PdfObject)))
(check-sat)
(pop)
(push)
(assert (le x14 java.lang.StringBuffer))
(check-sat)
(pop)
(push)
(assert (not (le x14 java.lang.StringBuffer)))
(check-sat)
(push)
(assert (le x9 java.lang.StringBuffer))
(check-sat)
(pop)
(push)
(assert (not (le x9 java.lang.StringBuffer)))
(check-sat)
(pop)
(pop)
(pop)
(push)
(assert (not (le x0 java.lang.String)))
(check-sat)
(pop)
(pop)
(push)
(assert (not (le x0 java.lang.String)))
(check-sat)
(pop)
(push)
(assert (le x15 java.lang.StringBuffer))
(check-sat)
(push)
(assert (le x7 java.lang.StringBuffer))
(check-sat)
(pop)
(push)
(assert (not (le x7 java.lang.StringBuffer)))
(check-sat)
(pop)
(push)
(assert (le x13 java.lang.StringBuffer))
(check-sat)
(pop)
(push)
(assert (not (le x13 java.lang.StringBuffer)))
(check-sat)
(push)
(assert (le x14 java.lang.StringBuffer))
(check-sat)
(pop)
(push)
(assert (not (le x14 java.lang.StringBuffer)))
(check-sat)
(pop)
(push)
(assert (le x1 com.lowagie.text.pdf.PdfObject))
(check-sat)
(pop)
(push)
(assert (not (le x1 com.lowagie.text.pdf.PdfObject)))
(check-sat)
(pop)
(push)
(assert (le x3 java.lang.String))
(check-sat)
(pop)
(push)
(assert (not (le x3 java.lang.String)))
(check-sat)
(push)
(assert (le x7 java.lang.String))
(check-sat)
(pop)
(push)
(assert (not (le x7 java.lang.String)))
(check-sat)
(pop)
(push)
(assert (le x10 com.lowagie.text.pdf.PdfObject))
(check-sat)
(pop)
(push)
(assert (not (le x10 com.lowagie.text.pdf.PdfObject)))
(check-sat)
(pop)
(pop)
(pop)
(pop)
(push)
(assert (not (le x15 java.lang.StringBuffer)))
(check-sat)
(pop)
(push)
(assert (le x12 java.lang.StringBuffer))
(check-sat)
(push)
(assert (le x1 java.lang.StringBuffer))
(check-sat)
(pop)
(push)
(assert (not (le x1 java.lang.StringBuffer)))
(check-sat)
(pop)
(push)
(assert (le x14 java.lang.StringBuffer))
(check-sat)
(pop)
(push)
(assert (not (le x14 java.lang.StringBuffer)))
(check-sat)
(pop)
(pop)
(push)
(assert (not (le x12 java.lang.StringBuffer)))
(check-sat)
(push)
(assert (le x1 com.lowagie.text.pdf.PdfObject))
(check-sat)
(push)
(assert (le x3 java.lang.StringBuffer))
(check-sat)
(pop)
(push)
(assert (not (le x3 java.lang.StringBuffer)))
(check-sat)
(pop)
(pop)
(push)
(assert (not (le x1 com.lowagie.text.pdf.PdfObject)))
(check-sat)
(pop)
(push)
(assert (le x8 java.lang.String))
(check-sat)
(pop)
(push)
(assert (not (le x8 java.lang.String)))
(check-sat)
(pop)
(pop)
(push)
(assert (le x12 java.lang.StringBuffer))
(check-sat)
(pop)
(push)
(assert (not (le x12 java.lang.StringBuffer)))
(check-sat)
(push)
(assert (le x5 java.lang.String))
(check-sat)
(pop)
(push)
(assert (not (le x5 java.lang.String)))
(check-sat)
(pop)
(push)
(assert (le x12 java.lang.StringBuffer))
(check-sat)
(pop)
(push)
(assert (not (le x12 java.lang.StringBuffer)))
(check-sat)
(pop)
(push)
(assert (le x11 java.lang.Integer))
(check-sat)
(pop)
(push)
(assert (not (le x11 java.lang.Integer)))
(check-sat)
(push)
(assert (le x11 java.lang.Integer))
(check-sat)
(pop)
(push)
(assert (not (le x11 java.lang.Integer)))
(check-sat)
(pop)
(push)
(assert (le x10 com.lowagie.text.pdf.PdfName))
(check-sat)
(pop)
(push)
(assert (not (le x10 com.lowagie.text.pdf.PdfName)))
(check-sat)
(pop)
(pop)
(push)
(assert (le x7 java.lang.String))
(check-sat)
(pop)
(push)
(assert (not (le x7 java.lang.String)))
(check-sat)
(push)
(assert (le x15 java.lang.StringBuffer))
(check-sat)
(pop)
(push)
(assert (not (le x15 java.lang.StringBuffer)))
(check-sat)
(pop)
(pop)
(push)
(assert (le x15 java.lang.StringBuffer))
(check-sat)
(pop)
(push)
(assert (not (le x15 java.lang.StringBuffer)))
(check-sat)
(pop)
(push)
(assert (le x6 java.lang.String))
(check-sat)
(pop)
(push)
(assert (not (le x6 java.lang.String)))
(check-sat)
(pop)
(pop)
(pop)
